(declare-fun c_ack!88 () (_ BitVec 64))
(declare-fun a_ack!89 () (_ BitVec 32))
(declare-fun b_ack!87 () (_ BitVec 64))
(declare-fun FPCHECK_FMUL_ACCURACY ((_ BitVec 64) (_ BitVec 64)) Bool)
(assert (not (fp.leq ((_ to_fp 11 53) c_ack!88) ((_ to_fp 11 53) #xbff0000000000000))))
(assert (not (bvslt a_ack!89 #xffffffff)))
(assert (not (= #xffffffff a_ack!89)))
(assert (= #x00000000 a_ack!89))
(assert (not (fp.leq ((_ to_fp 11 53) c_ack!88) ((_ to_fp 11 53) #xbff0000000000000))))
(assert (not (fp.eq ((_ to_fp 11 53) c_ack!88) ((_ to_fp 11 53) #x3ff0000000000000))))
(assert (not (fp.eq ((_ to_fp 11 53) b_ack!87) ((_ to_fp 11 53) #x0000000000000000))))
(assert (fp.leq ((_ to_fp 11 53) c_ack!88) ((_ to_fp 11 53) #x0000000000000000)))
(assert (fp.lt ((_ to_fp 11 53) b_ack!87) ((_ to_fp 11 53) #x408f400000000000)))
(assert (FPCHECK_FMUL_ACCURACY c_ack!88 c_ack!88))

(check-sat)
(exit)
